Problem:    Minimo_Vector
Rows:       260
Columns:    131 (110 integer, 110 binary)
Non-zeros:  780
Status:     INTEGER OPTIMAL
Objective:  0 (MINimum)

   No.   Row name        Activity     Lower bound   Upper bound
------ ------------    ------------- ------------- -------------
     1 res1[1]                    15            15             = 
     2 res1[2]                     4             4             = 
     3 res1[3]                     5             5             = 
     4 res1[4]                    87            87             = 
     5 res1[5]                     7             7             = 
     6 res1[6]                    12            12             = 
     7 res1[7]                    14            14             = 
     8 res1[8]                     8             8             = 
     9 res1[9]                     9             9             = 
    10 res1[10]                   44            44             = 
    11 res2[1,1]                   0                        1111 
    12 res2[1,2]                1100                        1111 
    13 res2[1,3]                1101                        1111 
    14 res2[1,4]                  72                        1111 
    15 res2[1,5]                1103                        1111 
    16 res2[1,6]                1108                        1111 
    17 res2[1,7]                1110                        1111 
    18 res2[1,8]                1104                        1111 
    19 res2[1,9]                1105                        1111 
    20 res2[1,10]                 29                        1111 
    21 res2[2,1]                  11                        1111 
    22 res2[2,2]                   0                        1111 
    23 res2[2,3]                   1                        1111 
    24 res2[2,4]                  83                        1111 
    25 res2[2,5]                   3                        1111 
    26 res2[2,6]                   8                        1111 
    27 res2[2,7]                  10                        1111 
    28 res2[2,8]                   4                        1111 
    29 res2[2,9]                   5                        1111 
    30 res2[2,10]                 40                        1111 
    31 res2[3,1]                  10                        1111 
    32 res2[3,2]                1110                        1111 
    33 res2[3,3]                   0                        1111 
    34 res2[3,4]                  82                        1111 
    35 res2[3,5]                   2                        1111 
    36 res2[3,6]                   7                        1111 
    37 res2[3,7]                   9                        1111 
    38 res2[3,8]                   3                        1111 
    39 res2[3,9]                   4                        1111 
    40 res2[3,10]                 39                        1111 
    41 res2[4,1]                1039                        1111 
    42 res2[4,2]                1028                        1111 
    43 res2[4,3]                1029                        1111 
    44 res2[4,4]                   0                        1111 
    45 res2[4,5]                1031                        1111 
    46 res2[4,6]                1036                        1111 
    47 res2[4,7]                1038                        1111 
    48 res2[4,8]                1032                        1111 
    49 res2[4,9]                1033                        1111 
    50 res2[4,10]               1068                        1111 
    51 res2[5,1]                   8                        1111 
    52 res2[5,2]                1108                        1111 
    53 res2[5,3]                1109                        1111 
    54 res2[5,4]                  80                        1111 
    55 res2[5,5]                   0                        1111 
    56 res2[5,6]                   5                        1111 
    57 res2[5,7]                   7                        1111 
    58 res2[5,8]                   1                        1111 
    59 res2[5,9]                   2                        1111 
    60 res2[5,10]                 37                        1111 
    61 res2[6,1]                   3                        1111 
    62 res2[6,2]                1103                        1111 
    63 res2[6,3]                1104                        1111 
    64 res2[6,4]                  75                        1111 
    65 res2[6,5]                1106                        1111 
    66 res2[6,6]                   0                        1111 
    67 res2[6,7]                   2                        1111 
    68 res2[6,8]                1107                        1111 
    69 res2[6,9]                1108                        1111 
    70 res2[6,10]                 32                        1111 
    71 res2[7,1]                   1                        1111 
    72 res2[7,2]                1101                        1111 
    73 res2[7,3]                1102                        1111 
    74 res2[7,4]                  73                        1111 
    75 res2[7,5]                1104                        1111 
    76 res2[7,6]                1109                        1111 
    77 res2[7,7]                   0                        1111 
    78 res2[7,8]                1105                        1111 
    79 res2[7,9]                1106                        1111 
    80 res2[7,10]                 30                        1111 
    81 res2[8,1]                   7                        1111 
    82 res2[8,2]                1107                        1111 
    83 res2[8,3]                1108                        1111 
    84 res2[8,4]                  79                        1111 
    85 res2[8,5]                1110                        1111 
    86 res2[8,6]                   4                        1111 
    87 res2[8,7]                   6                        1111 
    88 res2[8,8]                   0                        1111 
    89 res2[8,9]                   1                        1111 
    90 res2[8,10]                 36                        1111 
    91 res2[9,1]                   6                        1111 
    92 res2[9,2]                1106                        1111 
    93 res2[9,3]                1107                        1111 
    94 res2[9,4]                  78                        1111 
    95 res2[9,5]                1109                        1111 
    96 res2[9,6]                   3                        1111 
    97 res2[9,7]                   5                        1111 
    98 res2[9,8]                1110                        1111 
    99 res2[9,9]                   0                        1111 
   100 res2[9,10]                 35                        1111 
   101 res2[10,1]               1082                        1111 
   102 res2[10,2]               1071                        1111 
   103 res2[10,3]               1072                        1111 
   104 res2[10,4]                 43                        1111 
   105 res2[10,5]               1074                        1111 
   106 res2[10,6]               1079                        1111 
   107 res2[10,7]               1081                        1111 
   108 res2[10,8]               1075                        1111 
   109 res2[10,9]               1076                        1111 
   110 res2[10,10]                 0                        1111 
   111 res3[1,1]                   0            -0               
   112 res3[1,2]                1100            -0               
   113 res3[1,3]                1101            -0               
   114 res3[1,4]                  72            -0               
   115 res3[1,5]                1103            -0               
   116 res3[1,6]                1108            -0               
   117 res3[1,7]                1110            -0               
   118 res3[1,8]                1104            -0               
   119 res3[1,9]                1105            -0               
   120 res3[1,10]                 29            -0               
   121 res3[2,1]                  11            -0               
   122 res3[2,2]                   0            -0               
   123 res3[2,3]                   1            -0               
   124 res3[2,4]                  83            -0               
   125 res3[2,5]                   3            -0               
   126 res3[2,6]                   8            -0               
   127 res3[2,7]                  10            -0               
   128 res3[2,8]                   4            -0               
   129 res3[2,9]                   5            -0               
   130 res3[2,10]                 40            -0               
   131 res3[3,1]                  10            -0               
   132 res3[3,2]                1110            -0               
   133 res3[3,3]                   0            -0               
   134 res3[3,4]                  82            -0               
   135 res3[3,5]                   2            -0               
   136 res3[3,6]                   7            -0               
   137 res3[3,7]                   9            -0               
   138 res3[3,8]                   3            -0               
   139 res3[3,9]                   4            -0               
   140 res3[3,10]                 39            -0               
   141 res3[4,1]                1039            -0               
   142 res3[4,2]                1028            -0               
   143 res3[4,3]                1029            -0               
   144 res3[4,4]                   0            -0               
   145 res3[4,5]                1031            -0               
   146 res3[4,6]                1036            -0               
   147 res3[4,7]                1038            -0               
   148 res3[4,8]                1032            -0               
   149 res3[4,9]                1033            -0               
   150 res3[4,10]               1068            -0               
   151 res3[5,1]                   8            -0               
   152 res3[5,2]                1108            -0               
   153 res3[5,3]                1109            -0               
   154 res3[5,4]                  80            -0               
   155 res3[5,5]                   0            -0               
   156 res3[5,6]                   5            -0               
   157 res3[5,7]                   7            -0               
   158 res3[5,8]                   1            -0               
   159 res3[5,9]                   2            -0               
   160 res3[5,10]                 37            -0               
   161 res3[6,1]                   3            -0               
   162 res3[6,2]                1103            -0               
   163 res3[6,3]                1104            -0               
   164 res3[6,4]                  75            -0               
   165 res3[6,5]                1106            -0               
   166 res3[6,6]                   0            -0               
   167 res3[6,7]                   2            -0               
   168 res3[6,8]                1107            -0               
   169 res3[6,9]                1108            -0               
   170 res3[6,10]                 32            -0               
   171 res3[7,1]                   1            -0               
   172 res3[7,2]                1101            -0               
   173 res3[7,3]                1102            -0               
   174 res3[7,4]                  73            -0               
   175 res3[7,5]                1104            -0               
   176 res3[7,6]                1109            -0               
   177 res3[7,7]                   0            -0               
   178 res3[7,8]                1105            -0               
   179 res3[7,9]                1106            -0               
   180 res3[7,10]                 30            -0               
   181 res3[8,1]                   7            -0               
   182 res3[8,2]                1107            -0               
   183 res3[8,3]                1108            -0               
   184 res3[8,4]                  79            -0               
   185 res3[8,5]                1110            -0               
   186 res3[8,6]                   4            -0               
   187 res3[8,7]                   6            -0               
   188 res3[8,8]                   0            -0               
   189 res3[8,9]                   1            -0               
   190 res3[8,10]                 36            -0               
   191 res3[9,1]                   6            -0               
   192 res3[9,2]                1106            -0               
   193 res3[9,3]                1107            -0               
   194 res3[9,4]                  78            -0               
   195 res3[9,5]                1109            -0               
   196 res3[9,6]                   3            -0               
   197 res3[9,7]                   5            -0               
   198 res3[9,8]                1110            -0               
   199 res3[9,9]                   0            -0               
   200 res3[9,10]                 35            -0               
   201 res3[10,1]               1082            -0               
   202 res3[10,2]               1071            -0               
   203 res3[10,3]               1072            -0               
   204 res3[10,4]                 43            -0               
   205 res3[10,5]               1074            -0               
   206 res3[10,6]               1079            -0               
   207 res3[10,7]               1081            -0               
   208 res3[10,8]               1075            -0               
   209 res3[10,9]               1076            -0               
   210 res3[10,10]                 0            -0               
   211 res4[1]                     0            -0             = 
   212 res4[2]                     0            -0             = 
   213 res4[3]                     0            -0             = 
   214 res4[4]                     0            -0             = 
   215 res4[5]                     0            -0             = 
   216 res4[6]                     0            -0             = 
   217 res4[7]                     0            -0             = 
   218 res4[8]                     0            -0             = 
   219 res4[9]                     0            -0             = 
   220 res4[10]                    0            -0             = 
   221 res5[1]                    -6                          -0 
   222 res5[2]                     0                          -0 
   223 res5[3]                     0                          -0 
   224 res5[4]                    -8                          -0 
   225 res5[5]                    -1                          -0 
   226 res5[6]                    -4                          -0 
   227 res5[7]                    -5                          -0 
   228 res5[8]                    -2                          -0 
   229 res5[9]                    -3                          -0 
   230 res5[10]                   -7                          -0 
   231 res6[1]                  1104            -0               
   232 res6[2]                     0            -0               
   233 res6[3]                  1110            -0               
   234 res6[4]                  1102            -0               
   235 res6[5]                  1109            -0               
   236 res6[6]                  1106            -0               
   237 res6[7]                  1105            -0               
   238 res6[8]                  1108            -0               
   239 res6[9]                  1107            -0               
   240 res6[10]                 1103            -0               
   241 res7[1]                 -1122                          -0 
   242 res7[2]                     0                          -0 
   243 res7[3]                 -1112                          -0 
   244 res7[4]                 -1194                          -0 
   245 res7[5]                 -1114                          -0 
   246 res7[6]                 -1119                          -0 
   247 res7[7]                 -1121                          -0 
   248 res7[8]                 -1115                          -0 
   249 res7[9]                 -1116                          -0 
   250 res7[10]                -1151                          -0 
   251 res8[1]                  1100            -0               
   252 res8[2]                     0            -0               
   253 res8[3]                  1110            -0               
   254 res8[4]                  1028            -0               
   255 res8[5]                  1108            -0               
   256 res8[6]                  1103            -0               
   257 res8[7]                  1101            -0               
   258 res8[8]                  1107            -0               
   259 res8[9]                  1106            -0               
   260 res8[10]                 1071            -0               

   No. Column name       Activity     Lower bound   Upper bound
------ ------------    ------------- ------------- -------------
     1 x[1]                       15                             
     2 x[2]                        4                             
     3 x[3]                        5                             
     4 x[4]                       87                             
     5 x[5]                        7                             
     6 x[6]                       12                             
     7 x[7]                       14                             
     8 x[8]                        8                             
     9 x[9]                        9                             
    10 x[10]                      44                             
    11 menor                       4                             
    12 miu[1]       *              1             0             1 
    13 miu[2]       *              0             0             1 
    14 miu[3]       *              1             0             1 
    15 miu[4]       *              1             0             1 
    16 miu[5]       *              1             0             1 
    17 miu[6]       *              1             0             1 
    18 miu[7]       *              1             0             1 
    19 miu[8]       *              1             0             1 
    20 miu[9]       *              1             0             1 
    21 miu[10]      *              1             0             1 
    22 psi[1]                      7                             
    23 psi[2]                      0                             
    24 psi[3]                      1                             
    25 psi[4]                      9                             
    26 psi[5]                      2                             
    27 psi[6]                      5                             
    28 psi[7]                      6                             
    29 psi[8]                      3                             
    30 psi[9]                      4                             
    31 psi[10]                     8                             
    32 alpha[1,1]   *              0             0             1 
    33 alpha[1,2]   *              1             0             1 
    34 alpha[1,3]   *              1             0             1 
    35 alpha[1,4]   *              0             0             1 
    36 alpha[1,5]   *              1             0             1 
    37 alpha[1,6]   *              1             0             1 
    38 alpha[1,7]   *              1             0             1 
    39 alpha[1,8]   *              1             0             1 
    40 alpha[1,9]   *              1             0             1 
    41 alpha[1,10]  *              0             0             1 
    42 alpha[2,1]   *              0             0             1 
    43 alpha[2,2]   *              0             0             1 
    44 alpha[2,3]   *              0             0             1 
    45 alpha[2,4]   *              0             0             1 
    46 alpha[2,5]   *              0             0             1 
    47 alpha[2,6]   *              0             0             1 
    48 alpha[2,7]   *              0             0             1 
    49 alpha[2,8]   *              0             0             1 
    50 alpha[2,9]   *              0             0             1 
    51 alpha[2,10]  *              0             0             1 
    52 alpha[3,1]   *              0             0             1 
    53 alpha[3,2]   *              1             0             1 
    54 alpha[3,3]   *              0             0             1 
    55 alpha[3,4]   *              0             0             1 
    56 alpha[3,5]   *              0             0             1 
    57 alpha[3,6]   *              0             0             1 
    58 alpha[3,7]   *              0             0             1 
    59 alpha[3,8]   *              0             0             1 
    60 alpha[3,9]   *              0             0             1 
    61 alpha[3,10]  *              0             0             1 
    62 alpha[4,1]   *              1             0             1 
    63 alpha[4,2]   *              1             0             1 
    64 alpha[4,3]   *              1             0             1 
    65 alpha[4,4]   *              0             0             1 
    66 alpha[4,5]   *              1             0             1 
    67 alpha[4,6]   *              1             0             1 
    68 alpha[4,7]   *              1             0             1 
    69 alpha[4,8]   *              1             0             1 
    70 alpha[4,9]   *              1             0             1 
    71 alpha[4,10]  *              1             0             1 
    72 alpha[5,1]   *              0             0             1 
    73 alpha[5,2]   *              1             0             1 
    74 alpha[5,3]   *              1             0             1 
    75 alpha[5,4]   *              0             0             1 
    76 alpha[5,5]   *              0             0             1 
    77 alpha[5,6]   *              0             0             1 
    78 alpha[5,7]   *              0             0             1 
    79 alpha[5,8]   *              0             0             1 
    80 alpha[5,9]   *              0             0             1 
    81 alpha[5,10]  *              0             0             1 
    82 alpha[6,1]   *              0             0             1 
    83 alpha[6,2]   *              1             0             1 
    84 alpha[6,3]   *              1             0             1 
    85 alpha[6,4]   *              0             0             1 
    86 alpha[6,5]   *              1             0             1 
    87 alpha[6,6]   *              0             0             1 
    88 alpha[6,7]   *              0             0             1 
    89 alpha[6,8]   *              1             0             1 
    90 alpha[6,9]   *              1             0             1 
    91 alpha[6,10]  *              0             0             1 
    92 alpha[7,1]   *              0             0             1 
    93 alpha[7,2]   *              1             0             1 
    94 alpha[7,3]   *              1             0             1 
    95 alpha[7,4]   *              0             0             1 
    96 alpha[7,5]   *              1             0             1 
    97 alpha[7,6]   *              1             0             1 
    98 alpha[7,7]   *              0             0             1 
    99 alpha[7,8]   *              1             0             1 
   100 alpha[7,9]   *              1             0             1 
   101 alpha[7,10]  *              0             0             1 
   102 alpha[8,1]   *              0             0             1 
   103 alpha[8,2]   *              1             0             1 
   104 alpha[8,3]   *              1             0             1 
   105 alpha[8,4]   *              0             0             1 
   106 alpha[8,5]   *              1             0             1 
   107 alpha[8,6]   *              0             0             1 
   108 alpha[8,7]   *              0             0             1 
   109 alpha[8,8]   *              0             0             1 
   110 alpha[8,9]   *              0             0             1 
   111 alpha[8,10]  *              0             0             1 
   112 alpha[9,1]   *              0             0             1 
   113 alpha[9,2]   *              1             0             1 
   114 alpha[9,3]   *              1             0             1 
   115 alpha[9,4]   *              0             0             1 
   116 alpha[9,5]   *              1             0             1 
   117 alpha[9,6]   *              0             0             1 
   118 alpha[9,7]   *              0             0             1 
   119 alpha[9,8]   *              1             0             1 
   120 alpha[9,9]   *              0             0             1 
   121 alpha[9,10]  *              0             0             1 
   122 alpha[10,1]  *              1             0             1 
   123 alpha[10,2]  *              1             0             1 
   124 alpha[10,3]  *              1             0             1 
   125 alpha[10,4]  *              0             0             1 
   126 alpha[10,5]  *              1             0             1 
   127 alpha[10,6]  *              1             0             1 
   128 alpha[10,7]  *              1             0             1 
   129 alpha[10,8]  *              1             0             1 
   130 alpha[10,9]  *              1             0             1 
   131 alpha[10,10] *              0             0             1 

Integer feasibility conditions:

KKT.PE: max.abs.err = 0.00e+00 on row 0
        max.rel.err = 0.00e+00 on row 0
        High quality

KKT.PB: max.abs.err = 0.00e+00 on row 0
        max.rel.err = 0.00e+00 on row 0
        High quality

End of output
